
Gurobi 9.5.1 (linux64) logging started Mon 06 Jun 2022 12:16:37 PM MST

Set parameter LogFile to value "/home/local/ASUAD/kmajd1/NNRepLayer_v2/demos/examples/tc7_walking_example/repair_net/logs/opt_log_layer_32_nodes1_100_6_6_2022_12_15_47.log"
Gurobi Optimizer version 9.5.1 build v9.5.1rc2 (linux64)
Thread count: 48 physical cores, 96 logical processors, using up to 32 threads
Optimize a model with 55910 rows, 34806 columns and 239820 nonzeros
Model fingerprint: 0xce9e222c
Model has 101 quadratic objective terms
Variable types: 14106 continuous, 20700 integer (20700 binary)
Coefficient statistics:
  Matrix range     [6e-04, 5e+01]
  Objective range  [2e-01, 4e+01]
  QObjective range [2e+00, 2e+00]
  Bounds range     [1e+00, 5e+01]
  RHS range        [2e-03, 5e+01]
Presolve removed 35787 rows and 15034 columns
Presolve time: 0.61s
Presolved: 20123 rows, 19772 columns, 173965 nonzeros
Presolved model has 101 quadratic objective terms
Variable types: 13341 continuous, 6431 integer (6431 binary)

Root simplex log...

Iteration    Objective       Primal Inf.    Dual Inf.      Time
   25063    8.9855319e+02   8.599662e+01   0.000000e+00      5s
   27162    8.9855319e+02   0.000000e+00   0.000000e+00      6s

Root relaxation: objective 8.985532e+02, 27162 iterations, 4.81 seconds (11.88 work units)

    Nodes    |    Current Node    |     Objective Bounds      |     Work
 Expl Unexpl |  Obj  Depth IntInf | Incumbent    BestBd   Gap | It/Node Time

     0     0  898.55319    0 4666          -  898.55319      -     -    5s
     0     0  898.55319    0 4927          -  898.55319      -     -    9s
     0     0  898.55319    0 4915          -  898.55319      -     -   11s
     0     0  898.55319    0 4852          -  898.55319      -     -   14s
     0     0  898.55319    0 4802          -  898.55319      -     -   17s
     0     0  898.55319    0 4744          -  898.55319      -     -   20s
     0     0  898.55319    0 4706          -  898.55319      -     -   21s
     0     0  898.55319    0 4681          -  898.55319      -     -   23s
     0     0  898.55319    0 4628          -  898.55319      -     -   25s
     0     0  898.55319    0 4624          -  898.55319      -     -   27s

Cutting planes:
  Cover: 396
  Implied bound: 141
  Clique: 165
  MIR: 1138
  StrongCG: 13
  Flow cover: 652
  Zero half: 1
  Network: 3
  RLT: 21
  Relax-and-lift: 64
  BQP: 18
  PSD: 1

Explored 1 nodes (66176 simplex iterations) in 49.47 seconds (114.92 work units)
Thread count was 32 (of 96 available processors)

Solution count 0

Solve interrupted
Best objective -, best bound 8.985531935322e+02, gap -
